Gurobi Optimizer version 9.1.2 build v9.1.2rc0 (linux64)
Thread count: 36 physical cores, 72 logical processors, using up to 32 threads
Optimize a model with 12 rows, 57 columns and 590 nonzeros
Model fingerprint: 0xf32eec78
Model has 47 quadratic constraints
Coefficient statistics:
  Matrix range     [2e-05, 3e+00]
  QMatrix range    [1e+00, 1e+00]
  QLMatrix range   [1e+00, 1e+00]
  Objective range  [8e-03, 7e-01]
  Bounds range     [1e+00, 1e+00]
  RHS range        [1e+00, 1e+00]
Presolve removed 9 rows and 0 columns

Continuous model is non-convex -- solving as a MIP.

Presolve removed 9 rows and 0 columns
Presolve time: 0.00s
Presolved: 189 rows, 57 columns, 443 nonzeros
Presolved model has 47 bilinear constraint(s)
Variable types: 57 continuous, 0 integer (0 binary)

Root relaxation: objective -1.743721e+00, 44 iterations, 0.00 seconds

    Nodes    |    Current Node    |     Objective Bounds      |     Work
 Expl Unexpl |  Obj  Depth IntInf | Incumbent    BestBd   Gap | It/Node Time

     0     0   -1.74372    0   38          -   -1.74372      -     -    0s
H    0     0                       0.6147548   -1.74372   384%     -    0s
     0     0   -1.64739    0    1    0.61475   -1.64739   368%     -    0s
H    0     0                      -1.6450460   -1.64739  0.14%     -    0s
     0     0     cutoff    0        -1.64505   -1.64505  0.00%     -    0s

Cutting planes:
  RLT: 25
  BQP: 3

Explored 1 nodes (76 simplex iterations) in 0.01 seconds
Thread count was 32 (of 72 available processors)

Solution count 2: -1.64505 0.614755 
No other solutions better than -1.64505

Optimal solution found (tolerance 1.00e-04)
Best objective -1.645045978473e+00, best bound -1.645045978473e+00, gap 0.0000%

User-callback calls 78, time in user-callback 0.00 sec
Gurobi Optimizer version 9.1.2 build v9.1.2rc0 (linux64)
Thread count: 36 physical cores, 72 logical processors, using up to 32 threads
Optimize a model with 24 rows, 125 columns and 2580 nonzeros
Model fingerprint: 0x56f8d233
Model has 105 quadratic constraints
Coefficient statistics:
  Matrix range     [4e-06, 5e+01]
  QMatrix range    [1e+00, 1e+00]
  QLMatrix range   [1e+00, 1e+00]
  Objective range  [6e-03, 8e-01]
  Bounds range     [1e+00, 1e+00]
  RHS range        [1e+00, 1e+00]
Presolve removed 11 rows and 0 columns

Continuous model is non-convex -- solving as a MIP.

Presolve removed 11 rows and 0 columns
Presolve time: 0.00s
Presolved: 428 rows, 125 columns, 2018 nonzeros
Presolved model has 105 bilinear constraint(s)
Variable types: 125 continuous, 0 integer (0 binary)

Root relaxation: objective -3.011087e+00, 135 iterations, 0.00 seconds

    Nodes    |    Current Node    |     Objective Bounds      |     Work
 Expl Unexpl |  Obj  Depth IntInf | Incumbent    BestBd   Gap | It/Node Time

     0     0   -3.01109    0   95          -   -3.01109      -     -    0s
H    0     0                      -0.3537158   -3.01109   751%     -    0s
     0     0   -2.64206    0   47   -0.35372   -2.64206   647%     -    0s
H    0     0                      -1.4185111   -2.64206  86.3%     -    0s
     0     0   -2.62947    0   42   -1.41851   -2.62947  85.4%     -    0s
     0     0   -2.56593    0   84   -1.41851   -2.56593  80.9%     -    0s
     0     0   -2.55731    0   84   -1.41851   -2.55731  80.3%     -    0s
     0     0   -2.53761    0   47   -1.41851   -2.53761  78.9%     -    0s
     0     0   -2.53716    0   47   -1.41851   -2.53716  78.9%     -    0s
     0     0   -2.52624    0   62   -1.41851   -2.52624  78.1%     -    0s
     0     0   -2.52430    0   73   -1.41851   -2.52430  78.0%     -    0s
     0     0   -2.52241    0   73   -1.41851   -2.52241  77.8%     -    0s
     0     0   -2.52167    0   73   -1.41851   -2.52167  77.8%     -    0s
     0     0   -2.52138    0   59   -1.41851   -2.52138  77.7%     -    0s
     0     0   -2.52129    0   59   -1.41851   -2.52129  77.7%     -    0s
     0     0   -2.52127    0   59   -1.41851   -2.52127  77.7%     -    0s
H    0     0                      -1.4880157   -2.52127  69.4%     -    0s
H    0     0                      -1.7793529   -2.52127  41.7%     -    0s
H    0     0                      -1.8701767   -2.52127  34.8%     -    0s
     0     2   -2.52127    0   59   -1.87018   -2.52127  34.8%     -    0s
*  857   726              25      -1.8706474   -2.28644  22.2%  22.0    0s
*  904   894              32      -2.0326277   -2.28644  12.5%  21.3    0s
*  994   894              20      -2.1668631   -2.28644  5.52%  20.4    0s
* 1202   806              20      -2.1668632   -2.23705  3.24%  18.8    0s
* 1347   900              16      -2.1670157   -2.21978  2.43%  17.9    0s
* 1389   900              28      -2.1754135   -2.21978  2.04%  17.7    0s
* 1428   900              22      -2.1828567   -2.21978  1.69%  17.4    0s
* 1429   900              22      -2.1828567   -2.21978  1.69%  17.4    0s
* 1716   825              23      -2.1829497   -2.21978  1.69%  15.6    0s
* 1717   825              23      -2.1829597   -2.21978  1.69%  15.6    0s
* 1718   825              22      -2.1829769   -2.21978  1.69%  15.6    0s
* 1742   825              19      -2.1834967   -2.21978  1.66%  15.6    0s
* 1753   825              18      -2.1853034   -2.21978  1.58%  15.6    0s
* 1869   983              19      -2.1853357   -2.21978  1.58%  14.9    0s
* 1870   983              19      -2.1853360   -2.21978  1.58%  14.9    0s
* 1929   983              19      -2.1902260   -2.21978  1.35%  14.5    0s
* 1974   983              17      -2.1932538   -2.21978  1.21%  14.3    0s
* 2003   983              11      -2.1981650   -2.21978  0.98%  14.2    0s
* 2316   449              13      -2.1981988   -2.20022  0.09%  12.9    0s

Cutting planes:
  RLT: 48
  BQP: 12
  PSD: 34

Explored 2687 nodes (30402 simplex iterations) in 0.58 seconds
Thread count was 32 (of 72 available processors)

Solution count 10: -2.1982 -2.19817 -2.19325 ... -2.18296
No other solutions better than -2.1982

Optimal solution found (tolerance 1.00e-04)
Best objective -2.198198788195e+00, best bound -2.198198788195e+00, gap 0.0000%

User-callback calls 5651, time in user-callback 0.00 sec



objective value: -2.198198788195063
objective bound: -2.198198788195063
x_opt: [0.0, 0.0, 1.0, 0.0, 1.0, 0.6715546827890345, 1.0, 1.0, 1.0, 0.0, 0.0, 0.1978211016134284, 0.0, 0.0, 0.0, 0.49405417179526406, 0.0, 0.0, 0.005517301964108761, 0.0]
GUROBI solution time: 0.584846019744873




